TCS_Benchmarks/redos_fix/corpus1_output_distinct_4349_4348_8_0.smt2
(set-logic QF_S)
(declare-const x String)
(assert (str.in.re x (re.inter  (re.++ (re.+ (re.union (re.range "\u{00}" "\u{09}") (re.range "\u{0b}" "\u{0c}") (re.range "\u{0e}" "\u{84}") (re.range "\u{86}" "\u{ff}")) ) (re.* (re.comp  (str.to.re "\u{3c}")) ))  (re.++ (re.+ (re.union (re.range "\u{00}" "\u{09}") (re.range "\u{0b}" "\u{0c}") (re.range "\u{0e}" "\u{84}") (re.range "\u{86}" "\u{ff}")) ) (re.++  (re.++  (str.to.re "\u{52}") (re.++  (str.to.re "\u{65}") (re.++  (str.to.re "\u{76}") (re.++  (str.to.re "\u{69}") (re.++  (str.to.re "\u{73}") (re.++  (str.to.re "\u{69}") (re.++  (str.to.re "\u{6f}") (re.++  (str.to.re "\u{6e}") (re.++  (str.to.re "\u{20}") (re.++ (re.* (re.range "\u{30}" "\u{39}") ) (re.++  (str.to.re "\u{3a}")  (str.to.re "\u{20}")))))))))))) (re.* (re.comp  (str.to.re "\u{3c}")) ))) )))
(check-sat)
(get-model)