TCS_Benchmarks/redos_fix/corpus1_output_distinct_4349_4348_8_0.txt
(.+)([^<]*)
(.+)(Revision ([0-9]*): )([^<]*)